\ Generated by MPModelProtoExporter
\   Name             : 
\   Format           : Free
\   Constraints      : 160
\   Variables        : 21
\     Binary         : 0
\     Integer        : 0
\     Continuous     : 21
Maximize
 Obj: -1 _1 -1 _2 -1 _3 -1 _4 -3 _5 +1 _0CN_1 +1 _0CT_2 +1 _0K_3 +1 _0LT_4 +1 _0MC_1_2_5 +1 _0MK_3_5 +1 _0ML_4_5 +1 _0T_5 
Subject to
 Mono_Ineq.__H(0CN_1)____H(0CN): -1 _0CN +1 _0CN_1  >= 0
 Mono_Ineq.__H(0CN_1)____H(1): -1 _1 +1 _0CN_1  >= 0
 Additivity_Ineq.__H(0CN_1)____H(0CN)___H(1): -1 _1 -1 _0CN +1 _0CN_1  <= 0
 Mono_Ineq.__H(0CT_2)____H(0CT): -1 _0CT +1 _0CT_2  >= 0
 Mono_Ineq.__H(0CT_2)____H(2): -1 _2 +1 _0CT_2  >= 0
 Additivity_Ineq.__H(0CT_2)____H(0CT)___H(2): -1 _2 -1 _0CT +1 _0CT_2  <= 0
 Mono_Ineq.__H(0K_3)____H(0K): -1 _0K +1 _0K_3  >= 0
 Mono_Ineq.__H(0K_3)____H(3): -1 _3 +1 _0K_3  >= 0
 Additivity_Ineq.__H(0K_3)____H(0K)___H(3): -1 _3 -1 _0K +1 _0K_3  <= 0
 Mono_Ineq.__H(0LT_4)____H(0LT): -1 _0LT +1 _0LT_4  >= 0
 Mono_Ineq.__H(0LT_4)____H(4): -1 _4 +1 _0LT_4  >= 0
 Additivity_Ineq.__H(0LT_4)____H(0LT)___H(4): -1 _4 -1 _0LT +1 _0LT_4  <= 0
 Mono_Ineq.__H(0MC_1_2_5)____H(0MC): -1 _0MC +1 _0MC_1_2_5  >= 0
 Mono_Ineq.__H(0MC_1_2_5)____H(5): -1 _5 +1 _0MC_1_2_5  >= 0
 Mono_Ineq.__H(0MC_1_2_5)____H(2): -1 _2 +1 _0MC_1_2_5  >= 0
 Mono_Ineq.__H(0MC_1_2_5)____H(1): -1 _1 +1 _0MC_1_2_5  >= 0
 Additivity_Ineq.__H(0MC_1_2_5)____H(0MC)___H(5)___H(2)___H(1): -1 _1 -1 _2 -1 _5 -1 _0MC +1 _0MC_1_2_5  <= 0
 Mono_Ineq.__H(0MK_3_5)____H(0MK): -1 _0MK +1 _0MK_3_5  >= 0
 Mono_Ineq.__H(0MK_3_5)____H(5): -1 _5 +1 _0MK_3_5  >= 0
 Mono_Ineq.__H(0MK_3_5)____H(3): -1 _3 +1 _0MK_3_5  >= 0
 Additivity_Ineq.__H(0MK_3_5)____H(0MK)___H(5)___H(3): -1 _3 -1 _5 -1 _0MK +1 _0MK_3_5  <= 0
 Mono_Ineq.__H(0ML_4_5)____H(0ML): -1 _0ML +1 _0ML_4_5  >= 0
 Mono_Ineq.__H(0ML_4_5)____H(5): -1 _5 +1 _0ML_4_5  >= 0
 Mono_Ineq.__H(0ML_4_5)____H(4): -1 _4 +1 _0ML_4_5  >= 0
 Additivity_Ineq.__H(0ML_4_5)____H(0ML)___H(5)___H(4): -1 _4 -1 _5 -1 _0ML +1 _0ML_4_5  <= 0
 Mono_Ineq.__H(0T_5)____H(0T): -1 _0T +1 _0T_5  >= 0
 Mono_Ineq.__H(0T_5)____H(5): -1 _5 +1 _0T_5  >= 0
 Additivity_Ineq.__H(0T_5)____H(0T)___H(5): -1 _5 -1 _0T +1 _0T_5  <= 0
 Statistics_Ineq._1__1___h(0CN_1)___0___h(1)____1___log2(234997.0)_|_1_|_CN.ID: +1 _0CN_1  <= 17.8423
 Statistics_Ineq._2__2___h(0CN_1)___1___h(1)____2___log2(484.76489146801873)_|_2_|_CN.ID: -1 _1 +2 _0CN_1  <= 17.8423
 Statistics_Ineq._3__3___h(0CN_1)___2___h(1)____3___log2(61.709795330658544)_|_3_|_CN.ID: -2 _1 +3 _0CN_1  <= 17.8423
 Statistics_Ineq._4__4___h(0CN_1)___3___h(1)____4___log2(22.017377034243175)_|_4_|_CN.ID: -3 _1 +4 _0CN_1  <= 17.8423
 Statistics_Ineq._5__5___h(0CN_1)___4___h(1)____5___log2(11.863489865870786)_|_5_|_CN.ID: -4 _1 +5 _0CN_1  <= 17.8423
 Statistics_Ineq._6__6___h(0CN_1)___5___h(1)____6___log2(7.855558244368031)_|_6_|_CN.ID: -5 _1 +6 _0CN_1  <= 17.8423
 Statistics_Ineq._7__7___h(0CN_1)___6___h(1)____7___log2(5.851869288664952)_|_7_|_CN.ID: -6 _1 +7 _0CN_1  <= 17.8423
 Statistics_Ineq._8__8___h(0CN_1)___7___h(1)____8___log2(4.692267792256019)_|_8_|_CN.ID: -7 _1 +8 _0CN_1  <= 17.8423
 Statistics_Ineq._9__9___h(0CN_1)___8___h(1)____9___log2(3.95170668822707)_|_9_|_CN.ID: -8 _1 +9 _0CN_1  <= 17.8423
 Statistics_Ineq._10__10___h(0CN_1)___9___h(1)____10___log2(3.4443417173490185)_|_10_|_CN.ID: -9 _1 +10 _0CN_1  <= 17.8423
 Statistics_Ineq._11__h(0CN_1)___h(1)____log2(1.0)_|_inf_|_CN.ID: -1 _1 +1 _0CN_1  <= 0
 Statistics_Ineq._12__1___h(0CT_2)___0___h(2)____1___log2(2.0)_|_1_|_CT.ID: +1 _0CT_2  <= 1
 Statistics_Ineq._13__2___h(0CT_2)___1___h(2)____2___log2(1.4142135623730951)_|_2_|_CT.ID: -1 _2 +2 _0CT_2  <= 1
 Statistics_Ineq._14__3___h(0CT_2)___2___h(2)____3___log2(1.2599210498948732)_|_3_|_CT.ID: -2 _2 +3 _0CT_2  <= 1
 Statistics_Ineq._15__4___h(0CT_2)___3___h(2)____4___log2(1.189207115002721)_|_4_|_CT.ID: -3 _2 +4 _0CT_2  <= 1
 Statistics_Ineq._16__5___h(0CT_2)___4___h(2)____5___log2(1.148698354997035)_|_5_|_CT.ID: -4 _2 +5 _0CT_2  <= 1
 Statistics_Ineq._17__6___h(0CT_2)___5___h(2)____6___log2(1.122462048309373)_|_6_|_CT.ID: -5 _2 +6 _0CT_2  <= 1
 Statistics_Ineq._18__7___h(0CT_2)___6___h(2)____7___log2(1.1040895136738123)_|_7_|_CT.ID: -6 _2 +7 _0CT_2  <= 1
 Statistics_Ineq._19__8___h(0CT_2)___7___h(2)____8___log2(1.0905077326652577)_|_8_|_CT.ID: -7 _2 +8 _0CT_2  <= 1
 Statistics_Ineq._20__9___h(0CT_2)___8___h(2)____9___log2(1.080059738892306)_|_9_|_CT.ID: -8 _2 +9 _0CT_2  <= 1
 Statistics_Ineq._21__10___h(0CT_2)___9___h(2)____10___log2(1.0717734625362931)_|_10_|_CT.ID: -9 _2 +10 _0CT_2  <= 1
 Statistics_Ineq._22__h(0CT_2)___h(2)____log2(1.0)_|_inf_|_CT.ID: -1 _2 +1 _0CT_2  <= 0
 Statistics_Ineq._23__1___h(0K_3)___0___h(3)____1___log2(134170.0)_|_1_|_K.ID: +1 _0K_3  <= 17.0337
 Statistics_Ineq._24__2___h(0K_3)___1___h(3)____2___log2(366.29223305988893)_|_2_|_K.ID: -1 _3 +2 _0K_3  <= 17.0337
 Statistics_Ineq._25__3___h(0K_3)___2___h(3)____3___log2(51.19393035144834)_|_3_|_K.ID: -2 _3 +3 _0K_3  <= 17.0337
 Statistics_Ineq._26__4___h(0K_3)___3___h(3)____4___log2(19.138762579119085)_|_4_|_K.ID: -3 _3 +4 _0K_3  <= 17.0337
 Statistics_Ineq._27__5___h(0K_3)___4___h(3)____5___log2(10.605498428686793)_|_5_|_K.ID: -4 _3 +5 _0K_3  <= 17.0337
 Statistics_Ineq._28__6___h(0K_3)___5___h(3)____6___log2(7.154993385842389)_|_6_|_K.ID: -5 _3 +6 _0K_3  <= 17.0337
 Statistics_Ineq._29__7___h(0K_3)___6___h(3)____7___log2(5.401597291274521)_|_7_|_K.ID: -6 _3 +7 _0K_3  <= 17.0337
 Statistics_Ineq._30__8___h(0K_3)___7___h(3)____8___log2(4.374787146721436)_|_8_|_K.ID: -7 _3 +8 _0K_3  <= 17.0337
 Statistics_Ineq._31__9___h(0K_3)___8___h(3)____9___log2(3.713124327690797)_|_9_|_K.ID: -8 _3 +9 _0K_3  <= 17.0337
 Statistics_Ineq._32__10___h(0K_3)___9___h(3)____10___log2(3.2566084242178692)_|_10_|_K.ID: -9 _3 +10 _0K_3  <= 17.0337
 Statistics_Ineq._33__h(0K_3)___h(3)____log2(1.0)_|_inf_|_K.ID: -1 _3 +1 _0K_3  <= 0
 Statistics_Ineq._34__1___h(0LT_4)___0___h(4)____1___log2(16.0)_|_1_|_LT.ID: +1 _0LT_4  <= 4
 Statistics_Ineq._35__2___h(0LT_4)___1___h(4)____2___log2(4.0)_|_2_|_LT.ID: -1 _4 +2 _0LT_4  <= 4
 Statistics_Ineq._36__3___h(0LT_4)___2___h(4)____3___log2(2.5198420997897464)_|_3_|_LT.ID: -2 _4 +3 _0LT_4  <= 4
 Statistics_Ineq._37__4___h(0LT_4)___3___h(4)____4___log2(2.0)_|_4_|_LT.ID: -3 _4 +4 _0LT_4  <= 4
 Statistics_Ineq._38__5___h(0LT_4)___4___h(4)____5___log2(1.7411011265922482)_|_5_|_LT.ID: -4 _4 +5 _0LT_4  <= 4
 Statistics_Ineq._39__6___h(0LT_4)___5___h(4)____6___log2(1.5874010519681994)_|_6_|_LT.ID: -5 _4 +6 _0LT_4  <= 4
 Statistics_Ineq._40__7___h(0LT_4)___6___h(4)____7___log2(1.4859942891369484)_|_7_|_LT.ID: -6 _4 +7 _0LT_4  <= 4
 Statistics_Ineq._41__8___h(0LT_4)___7___h(4)____8___log2(1.4142135623730951)_|_8_|_LT.ID: -7 _4 +8 _0LT_4  <= 4
 Statistics_Ineq._42__9___h(0LT_4)___8___h(4)____9___log2(1.360790000174377)_|_9_|_LT.ID: -8 _4 +9 _0LT_4  <= 4
 Statistics_Ineq._43__10___h(0LT_4)___9___h(4)____10___log2(1.3195079107728942)_|_10_|_LT.ID: -9 _4 +10 _0LT_4  <= 4
 Statistics_Ineq._44__h(0LT_4)___h(4)____log2(1.0)_|_inf_|_LT.ID: -1 _4 +1 _0LT_4  <= 0
 Statistics_Ineq._45__1___h(0MC_1_2_5)___0___h(5)____1___log2(201301.0)_|_1_|_MC.MOVIE_ID: +1 _0MC_1_2_5  <= 17.619
 Statistics_Ineq._46__2___h(0MC_1_2_5)___1___h(5)____2___log2(2344.7390046655514)_|_2_|_MC.MOVIE_ID: -1 _5 +2 _0MC_1_2_5  <= 22.3904
 Statistics_Ineq._47__3___h(0MC_1_2_5)___2___h(5)____3___log2(553.833043000911)_|_3_|_MC.MOVIE_ID: -2 _5 +3 _0MC_1_2_5  <= 27.3399
 Statistics_Ineq._48__4___h(0MC_1_2_5)___3___h(5)____4___log2(278.3680850653061)_|_4_|_MC.MOVIE_ID: -3 _5 +4 _0MC_1_2_5  <= 32.4834
 Statistics_Ineq._49__5___h(0MC_1_2_5)___4___h(5)____5___log2(189.35629510011285)_|_5_|_MC.MOVIE_ID: -4 _5 +5 _0MC_1_2_5  <= 37.8248
 Statistics_Ineq._50__6___h(0MC_1_2_5)___5___h(5)____6___log2(149.7489211724434)_|_6_|_MC.MOVIE_ID: -5 _5 +6 _0MC_1_2_5  <= 43.3584
 Statistics_Ineq._51__7___h(0MC_1_2_5)___6___h(5)____7___log2(128.9230645787127)_|_7_|_MC.MOVIE_ID: -6 _5 +7 _0MC_1_2_5  <= 49.0726
 Statistics_Ineq._52__8___h(0MC_1_2_5)___7___h(5)____8___log2(116.88397455171383)_|_8_|_MC.MOVIE_ID: -7 _5 +8 _0MC_1_2_5  <= 54.9515
 Statistics_Ineq._53__9___h(0MC_1_2_5)___8___h(5)____9___log2(109.51971048088288)_|_9_|_MC.MOVIE_ID: -8 _5 +9 _0MC_1_2_5  <= 60.9754
 Statistics_Ineq._54__10___h(0MC_1_2_5)___9___h(5)____10___log2(104.84804429227518)_|_10_|_MC.MOVIE_ID: -9 _5 +10 _0MC_1_2_5  <= 67.1216
 Statistics_Ineq._55__h(0MC_1_2_5)___h(5)____log2(94.0)_|_inf_|_MC.MOVIE_ID: -1 _5 +1 _0MC_1_2_5  <= 6.55459
 Statistics_Ineq._56__1___h(0MC_1_2_5)___0___h(2)____1___log2(2609129.0)_|_1_|_MC.COMPANY_TYPE_ID: +1 _0MC_1_2_5  <= 21.3151
 Statistics_Ineq._57__2___h(0MC_1_2_5)___1___h(2)____2___log2(1845430.977361386)_|_2_|_MC.COMPANY_TYPE_ID: -1 _2 +2 _0MC_1_2_5  <= 41.6311
 Statistics_Ineq._58__3___h(0MC_1_2_5)___2___h(2)____3___log2(1644535.5505828804)_|_3_|_MC.COMPANY_TYPE_ID: -2 _2 +3 _0MC_1_2_5  <= 61.9477
 Statistics_Ineq._59__4___h(0MC_1_2_5)___3___h(2)____4___log2(1552652.8676006738)_|_4_|_MC.COMPANY_TYPE_ID: -3 _2 +4 _0MC_1_2_5  <= 82.2652
 Statistics_Ineq._60__5___h(0MC_1_2_5)___4___h(2)____5___log2(1500166.817088087)_|_5_|_MC.COMPANY_TYPE_ID: -4 _2 +5 _0MC_1_2_5  <= 102.583
 Statistics_Ineq._61__6___h(0MC_1_2_5)___5___h(2)____6___log2(1466295.809685982)_|_6_|_MC.COMPANY_TYPE_ID: -5 _2 +6 _0MC_1_2_5  <= 122.902
 Statistics_Ineq._62__7___h(0MC_1_2_5)___6___h(2)____7___log2(1442680.6626064067)_|_7_|_MC.COMPANY_TYPE_ID: -6 _2 +7 _0MC_1_2_5  <= 143.222
 Statistics_Ineq._63__8___h(0MC_1_2_5)___7___h(2)____8___log2(1425312.9782620256)_|_8_|_MC.COMPANY_TYPE_ID: -7 _2 +8 _0MC_1_2_5  <= 163.543
 Statistics_Ineq._64__9___h(0MC_1_2_5)___8___h(2)____9___log2(1412031.354243233)_|_9_|_MC.COMPANY_TYPE_ID: -8 _2 +9 _0MC_1_2_5  <= 183.864
 Statistics_Ineq._65__10___h(0MC_1_2_5)___9___h(2)____10___log2(1401567.7204422245)_|_10_|_MC.COMPANY_TYPE_ID: -9 _2 +10 _0MC_1_2_5  <= 204.186
 Statistics_Ineq._66__h(0MC_1_2_5)___h(2)____log2(1334883.0)_|_inf_|_MC.COMPANY_TYPE_ID: -1 _2 +1 _0MC_1_2_5  <= 20.3483
 Statistics_Ineq._67__1___h(0MC_1_2_5)___0___h(1)____1___log2(2609129.0)_|_1_|_MC.COMPANY_ID: +1 _0MC_1_2_5  <= 21.3151
 Statistics_Ineq._68__2___h(0MC_1_2_5)___1___h(1)____2___log2(106883.15010795668)_|_2_|_MC.COMPANY_ID: -1 _1 +2 _0MC_1_2_5  <= 33.4113
 Statistics_Ineq._69__3___h(0MC_1_2_5)___2___h(1)____3___log2(75788.07259073698)_|_3_|_MC.COMPANY_ID: -2 _1 +3 _0MC_1_2_5  <= 48.629
 Statistics_Ineq._70__4___h(0MC_1_2_5)___3___h(1)____4___log2(68743.68174597787)_|_4_|_MC.COMPANY_ID: -3 _1 +4 _0MC_1_2_5  <= 64.2758
 Statistics_Ineq._71__5___h(0MC_1_2_5)___4___h(1)____5___log2(65836.53118034896)_|_5_|_MC.COMPANY_ID: -4 _1 +5 _0MC_1_2_5  <= 80.033
 Statistics_Ineq._72__6___h(0MC_1_2_5)___5___h(1)____6___log2(64352.605232193164)_|_6_|_MC.COMPANY_ID: -5 _1 +6 _0MC_1_2_5  <= 95.8423
 Statistics_Ineq._73__7___h(0MC_1_2_5)___6___h(1)____7___log2(63514.550164509055)_|_7_|_MC.COMPANY_ID: -6 _1 +7 _0MC_1_2_5  <= 111.684
 Statistics_Ineq._74__8___h(0MC_1_2_5)___7___h(1)____8___log2(63012.11279193569)_|_8_|_MC.COMPANY_ID: -7 _1 +8 _0MC_1_2_5  <= 127.547
 Statistics_Ineq._75__9___h(0MC_1_2_5)___8___h(1)____9___log2(62698.45498555785)_|_9_|_MC.COMPANY_ID: -8 _1 +9 _0MC_1_2_5  <= 143.425
 Statistics_Ineq._76__10___h(0MC_1_2_5)___9___h(1)____10___log2(62496.76791365353)_|_10_|_MC.COMPANY_ID: -9 _1 +10 _0MC_1_2_5  <= 159.315
 Statistics_Ineq._77__h(0MC_1_2_5)___h(1)____log2(62075.0)_|_inf_|_MC.COMPANY_ID: -1 _1 +1 _0MC_1_2_5  <= 15.9217
 Statistics_Ineq._78__1___h(0MK_3_5)___0___h(5)____1___log2(1112597.0)_|_1_|_MK.MOVIE_ID: +1 _0MK_3_5  <= 20.0855
 Statistics_Ineq._79__2___h(0MK_3_5)___1___h(5)____2___log2(13337.617665835229)_|_2_|_MK.MOVIE_ID: -1 _5 +2 _0MK_3_5  <= 27.4064
 Statistics_Ineq._80__3___h(0MK_3_5)___2___h(5)____3___log2(3236.1653184506104)_|_3_|_MK.MOVIE_ID: -2 _5 +3 _0MK_3_5  <= 34.9802
 Statistics_Ineq._81__4___h(0MK_3_5)___3___h(5)____4___log2(1662.0066065588123)_|_4_|_MK.MOVIE_ID: -3 _5 +4 _0MK_3_5  <= 42.7948
 Statistics_Ineq._82__5___h(0MK_3_5)___4___h(5)____5___log2(1147.3453628689751)_|_5_|_MK.MOVIE_ID: -4 _5 +5 _0MK_3_5  <= 50.8204
 Statistics_Ineq._83__6___h(0MK_3_5)___5___h(5)____6___log2(914.7899909806181)_|_6_|_MK.MOVIE_ID: -5 _5 +6 _0MK_3_5  <= 59.0238
 Statistics_Ineq._84__7___h(0MK_3_5)___6___h(5)____7___log2(789.6599818506569)_|_7_|_MK.MOVIE_ID: -6 _5 +7 _0MK_3_5  <= 67.3756
 Statistics_Ineq._85__8___h(0MK_3_5)___7___h(5)____8___log2(714.8099599097243)_|_8_|_MK.MOVIE_ID: -7 _5 +8 _0MK_3_5  <= 75.8513
 Statistics_Ineq._86__9___h(0MK_3_5)___8___h(5)____9___log2(666.8048171917634)_|_9_|_MK.MOVIE_ID: -8 _5 +9 _0MK_3_5  <= 84.4301
 Statistics_Ineq._87__10___h(0MK_3_5)___9___h(5)____10___log2(634.4708103513835)_|_10_|_MK.MOVIE_ID: -9 _5 +10 _0MK_3_5  <= 93.0941
 Statistics_Ineq._88__h(0MK_3_5)___h(5)____log2(540.0)_|_inf_|_MK.MOVIE_ID: -1 _5 +1 _0MK_3_5  <= 9.07682
 Statistics_Ineq._89__1___h(0MK_3_5)___0___h(3)____1___log2(4523930.0)_|_1_|_MK.KEYWORD_ID: +1 _0MK_3_5  <= 22.1091
 Statistics_Ineq._90__2___h(0MK_3_5)___1___h(3)____2___log2(142540.5972767057)_|_2_|_MK.KEYWORD_ID: -1 _3 +2 _0MK_3_5  <= 34.242
 Statistics_Ineq._91__3___h(0MK_3_5)___2___h(3)____3___log2(91933.95257125433)_|_3_|_MK.KEYWORD_ID: -2 _3 +3 _0MK_3_5  <= 49.4649
 Statistics_Ineq._92__4___h(0MK_3_5)___3___h(3)____4___log2(82003.06320560009)_|_4_|_MK.KEYWORD_ID: -3 _3 +4 _0MK_3_5  <= 65.2936
 Statistics_Ineq._93__5___h(0MK_3_5)___4___h(3)____5___log2(78043.67590316865)_|_5_|_MK.KEYWORD_ID: -4 _3 +5 _0MK_3_5  <= 81.26
 Statistics_Ineq._94__6___h(0MK_3_5)___5___h(3)____6___log2(76018.0546797557)_|_6_|_MK.KEYWORD_ID: -5 _3 +6 _0MK_3_5  <= 97.2843
 Statistics_Ineq._95__7___h(0MK_3_5)___6___h(3)____7___log2(74849.51552507188)_|_7_|_MK.KEYWORD_ID: -6 _3 +7 _0MK_3_5  <= 113.342
 Statistics_Ineq._96__8___h(0MK_3_5)___7___h(3)____8___log2(74123.73792740938)_|_8_|_MK.KEYWORD_ID: -7 _3 +8 _0MK_3_5  <= 129.421
 Statistics_Ineq._97__9___h(0MK_3_5)___8___h(3)____9___log2(73649.49002095767)_|_9_|_MK.KEYWORD_ID: -8 _3 +9 _0MK_3_5  <= 145.515
 Statistics_Ineq._98__10___h(0MK_3_5)___9___h(3)____10___log2(73328.0635960675)_|_10_|_MK.KEYWORD_ID: -9 _3 +10 _0MK_3_5  <= 161.621
 Statistics_Ineq._99__h(0MK_3_5)___h(3)____log2(72496.0)_|_inf_|_MK.KEYWORD_ID: -1 _3 +1 _0MK_3_5  <= 16.1456
 Statistics_Ineq._100__1___h(0ML_4_5)___0___h(5)____1___log2(29997.0)_|_1_|_ML.MOVIE_ID: +1 _0ML_4_5  <= 14.8725
 Statistics_Ineq._101__2___h(0ML_4_5)___1___h(5)____2___log2(1213.1327215107174)_|_2_|_ML.MOVIE_ID: -1 _5 +2 _0ML_4_5  <= 20.489
 Statistics_Ineq._102__3___h(0ML_4_5)___2___h(5)____3___log2(750.1502401240858)_|_3_|_ML.MOVIE_ID: -2 _5 +3 _0ML_4_5  <= 28.6531
 Statistics_Ineq._103__4___h(0ML_4_5)___3___h(5)____4___log2(664.2058945139274)_|_4_|_ML.MOVIE_ID: -3 _5 +4 _0ML_4_5  <= 37.5019
 Statistics_Ineq._104__5___h(0ML_4_5)___4___h(5)____5___log2(631.7613858973442)_|_5_|_ML.MOVIE_ID: -4 _5 +5 _0ML_4_5  <= 46.5162
 Statistics_Ineq._105__6___h(0ML_4_5)___5___h(5)____6___log2(614.8203730050602)_|_6_|_ML.MOVIE_ID: -5 _5 +6 _0ML_4_5  <= 55.5841
 Statistics_Ineq._106__7___h(0ML_4_5)___6___h(5)____7___log2(604.3057265104591)_|_7_|_ML.MOVIE_ID: -6 _5 +7 _0ML_4_5  <= 64.6739
 Statistics_Ineq._107__8___h(0ML_4_5)___7___h(5)____8___log2(597.0930053991272)_|_8_|_ML.MOVIE_ID: -7 _5 +8 _0ML_4_5  <= 73.7745
 Statistics_Ineq._108__9___h(0ML_4_5)___8___h(5)____9___log2(591.8294869471011)_|_9_|_ML.MOVIE_ID: -8 _5 +9 _0ML_4_5  <= 82.8813
 Statistics_Ineq._109__10___h(0ML_4_5)___9___h(5)____10___log2(587.8288234246537)_|_10_|_ML.MOVIE_ID: -9 _5 +10 _0ML_4_5  <= 91.9925
 Statistics_Ineq._110__h(0ML_4_5)___h(5)____log2(569.0)_|_inf_|_ML.MOVIE_ID: -1 _5 +1 _0ML_4_5  <= 9.15228
 Statistics_Ineq._111__1___h(0ML_4_5)___0___h(4)____1___log2(29997.0)_|_1_|_ML.LINK_TYPE_ID: +1 _0ML_4_5  <= 14.8725
 Statistics_Ineq._112__2___h(0ML_4_5)___1___h(4)____2___log2(12292.900349388667)_|_2_|_ML.LINK_TYPE_ID: -1 _4 +2 _0ML_4_5  <= 27.1711
 Statistics_Ineq._113__3___h(0ML_4_5)___2___h(4)____3___log2(9975.940412766955)_|_3_|_ML.LINK_TYPE_ID: -2 _4 +3 _0ML_4_5  <= 39.8527
 Statistics_Ineq._114__4___h(0ML_4_5)___3___h(4)____4___log2(9226.180008352485)_|_4_|_ML.LINK_TYPE_ID: -3 _4 +4 _0ML_4_5  <= 52.6861
 Statistics_Ineq._115__5___h(0ML_4_5)___4___h(4)____5___log2(8909.028014886519)_|_5_|_ML.LINK_TYPE_ID: -4 _4 +5 _0ML_4_5  <= 65.6053
 Statistics_Ineq._116__6___h(0ML_4_5)___5___h(4)____6___log2(8758.238819262004)_|_6_|_ML.LINK_TYPE_ID: -5 _4 +6 _0ML_4_5  <= 78.5786
 Statistics_Ineq._117__7___h(0ML_4_5)___6___h(4)____7___log2(8681.96177837495)_|_7_|_ML.LINK_TYPE_ID: -6 _4 +7 _0ML_4_5  <= 91.5866
 Statistics_Ineq._118__8___h(0ML_4_5)___7___h(4)____8___log2(8641.889460301132)_|_8_|_ML.LINK_TYPE_ID: -7 _4 +8 _0ML_4_5  <= 104.617
 Statistics_Ineq._119__9___h(0ML_4_5)___8___h(4)____9___log2(8620.288819110365)_|_9_|_ML.LINK_TYPE_ID: -8 _4 +9 _0ML_4_5  <= 117.662
 Statistics_Ineq._120__10___h(0ML_4_5)___9___h(4)____10___log2(8608.422118955614)_|_10_|_ML.LINK_TYPE_ID: -9 _4 +10 _0ML_4_5  <= 130.715
 Statistics_Ineq._121__h(0ML_4_5)___h(4)____log2(8593.0)_|_inf_|_ML.LINK_TYPE_ID: -1 _4 +1 _0ML_4_5  <= 13.0689
 Statistics_Ineq._122__1___h(0T_5)___0___h(5)____1___log2(8192.0)_|_1_|_T.ID: +1 _0T_5  <= 13
 Statistics_Ineq._123__2___h(0T_5)___1___h(5)____2___log2(90.50966799187809)_|_2_|_T.ID: -1 _5 +2 _0T_5  <= 13
 Statistics_Ineq._124__3___h(0T_5)___2___h(5)____3___log2(20.158736798317967)_|_3_|_T.ID: -2 _5 +3 _0T_5  <= 13
 Statistics_Ineq._125__4___h(0T_5)___3___h(5)____4___log2(9.513656920021768)_|_4_|_T.ID: -3 _5 +4 _0T_5  <= 13
 Statistics_Ineq._126__5___h(0T_5)___4___h(5)____5___log2(6.062866266041593)_|_5_|_T.ID: -4 _5 +5 _0T_5  <= 13
 Statistics_Ineq._127__6___h(0T_5)___5___h(5)____6___log2(4.489848193237491)_|_6_|_T.ID: -5 _5 +6 _0T_5  <= 13
 Statistics_Ineq._128__7___h(0T_5)___6___h(5)____7___log2(3.6228946570556264)_|_7_|_T.ID: -6 _5 +7 _0T_5  <= 13
 Statistics_Ineq._129__8___h(0T_5)___7___h(5)____8___log2(3.0844216508158815)_|_8_|_T.ID: -7 _5 +8 _0T_5  <= 13
 Statistics_Ineq._130__9___h(0T_5)___8___h(5)____9___log2(2.721580000348754)_|_9_|_T.ID: -8 _5 +9 _0T_5  <= 13
 Statistics_Ineq._131__10___h(0T_5)___9___h(5)____10___log2(2.4622888266898326)_|_10_|_T.ID: -9 _5 +10 _0T_5  <= 13
 Statistics_Ineq._132__h(0T_5)___h(5)____log2(1.0)_|_inf_|_T.ID: -1 _5 +1 _0T_5  <= 0
Bounds
 0 <= _1
 0 <= _2
 0 <= _3
 0 <= _4
 0 <= _5
 0 <= _0CN
 0 <= _0CN_1
 0 <= _0CT
 0 <= _0CT_2
 0 <= _0K
 0 <= _0K_3
 0 <= _0LT
 0 <= _0LT_4
 0 <= _0MC
 0 <= _0MC_1_2_5
 0 <= _0MK
 0 <= _0MK_3_5
 0 <= _0ML
 0 <= _0ML_4_5
 0 <= _0T
 0 <= _0T_5
End
